NAME: toy20_uniform_seed202510282
TYPE: TSP
DIMENSION: 20
EDGE_WEIGHT_TYPE: EUC_2D
NODE_COORD_SECTION
1 233 583
2 38 940
3 426 662
4 57 87
5 227 131
6 695 775
7 336 558
8 843 108
9 191 857
10 189 666
11 416 138
12 608 15
13 416 947
14 526 118
15 95 761
16 805 303
17 310 517
18 979 326
19 341 169
20 61 748
EOF
